(set-logic QF_LIA)
(declare-const x Int)
(declare-const y Int)
(declare-const z Int)
(assert (! (< x 10) :named a0))
(assert (! (> x 15) :named a1))
(assert (! (< y 20) :named a2))
(assert (! (>= y 5) :named a3))
(assert (! (< z 30) :named a4))
(assert (! (= z (+ x y)) :named a5))
(assert (! (> z 35) :named a6))
(assert (! (<= x 8) :named a7))
(assert (! (>= (+ x y) 25) :named a8))
(assert (! (<= y 10) :named a9))
(check-sat)